(declare-const t1 Int)
(declare-const t2 Int)
(declare-const t3 Int)
(declare-const t4 Int)
(declare-const t5 Int)
(declare-const t6 Int)
(declare-const t7 Int)
(declare-const t8 Int)
(declare-const t9 Int)
(declare-const t10 Int)
(declare-const t11 Int)
(declare-const t12 Int)
(declare-const t13 Int)
(declare-const t14 Int)
(declare-const t15 Int)
(declare-const t16 Int)
(declare-const t17 Int)
(declare-const t18 Int)
(declare-const t19 Int)
(declare-const t20 Int)
(declare-const t21 Int)
(declare-const t22 Int)
(declare-const t23 Int)
(declare-const t24 Int)
(declare-const t25 Int)
(declare-const t26 Int)
(declare-const t27 Int)
(declare-const t28 Int)
(declare-const t29 Int)
(declare-const t30 Int)
(declare-const t31 Int)
(declare-const t32 Int)
(declare-const t33 Int)
(declare-const t34 Int)
(declare-const t35 Int)
(declare-const t36 Int)
(declare-const t37 Int)
(declare-const t38 Int)
(declare-const t39 Int)
(declare-const t40 Int)
(declare-const t41 Int)
(declare-const t42 Int)
(declare-const t43 Int)
(declare-const t44 Int)
(declare-const t45 Int)
(declare-const t46 Int)
(declare-const t47 Int)
(declare-const t48 Int)
(declare-const t49 Int)
(declare-const t50 Int)
(declare-const t51 Int)
(declare-const t52 Int)
(declare-const t53 Int)
(declare-const t54 Int)
(declare-const t55 Int)
(declare-const t56 Int)
(declare-const t57 Int)
(declare-const t58 Int)
(declare-const t59 Int)
(declare-const t60 Int)
(declare-const t61 Int)
(declare-const t62 Int)
(declare-const t63 Int)
(declare-const t64 Int)
(declare-const t65 Int)
(declare-const t66 Int)
(declare-const t67 Int)
(declare-const t68 Int)
(declare-const t69 Int)
(declare-const t70 Int)
(declare-const t71 Int)
(declare-const t72 Int)
(declare-const t73 Int)
(declare-const t74 Int)
(declare-const t75 Int)
(declare-const t76 Int)
(declare-const t77 Int)
(declare-const t78 Int)
(declare-const t79 Int)
(declare-const t80 Int)
(declare-const t81 Int)
(declare-const t82 Int)
(declare-const t83 Int)
(declare-const t84 Int)
(declare-const t85 Int)
(declare-const t86 Int)
(declare-const t87 Int)
(declare-const t88 Int)
(declare-const t89 Int)
(declare-const t90 Int)
(declare-const t91 Int)
(assert (and (<= (+ t82 t78 (* 2 t77) (* 3 t76) (* 4 t75) (* 5 t74) (* 6 t73) (* 7 t72) (* 8 t71) (* 9 t70) (* 10 t69) (* 12 t68) (* 13 t67) (* 14 t66) (* 15 t65) (* 17 t64) (* 18 t63) (* 19 t62) (* 25 t61) (* 26 t60) (* 27 t59) (* 28 t58) (* 20 t57) (* 21 t56) (* 22 t55) (* 23 t54) (* 4 t91) (* 8 t90) (* 11 t53) (* 11 t89) 1) (+ t81 t79 t87)) (<= 0 t80) (<= 0 t89) (<= 0 t53) (<= 0 t90) (<= 0 t85) (<= 0 t91) (<= 0 t86) (<= 0 t84) (<= 0 t87) (<= 0 t88) (<= 0 t79) (<= 0 t81) (<= 0 t54) (<= 0 t55) (<= 0 t56) (<= 0 t57) (<= 0 t58) (<= 0 t59) (<= 0 t60) (<= 0 t61) (<= 0 t62) (<= 0 t63) (<= 0 t64) (<= 0 t65) (<= 0 t66) (<= 0 t67) (<= 0 t68) (<= 0 t69) (<= 0 t70) (<= 0 t71) (<= 0 t72) (<= 0 t73) (<= 0 t74) (<= 0 t75) (<= 0 t76) (<= 0 t77) (<= 0 t78) (<= 0 t82) (<= 0 t83) (= 0 (+ t87 t86 t50)) (= t85 t48) (= 0 t45) (= 0 t44) (= 0 t43) (= 0 t41) (= 0 t40) (= 0 t39) (= t80 t38) (= 0 t37) (= 0 t36) (= (+ t91 t90 t89) t8) (= (+ t88 t87 t86 t50) 0) (= (+ t84 t48) t85) (= (+ t83 t82 t45) 0) (= t44 0) (= t43 0) (= t41 t81) (= t40 0) (= t39 0) (= t38 t80) (= t37 0) (= t36 0) (= (+ t78 t77 t76 t75 t74 t73 t72 t71 t70 t69 t68 t67 t66 t65 t64 t63 t62 t61 t60 t59 t58 t57 t56 t55 t54 t53 t8) t79) (<= (+ t46 t34 (* 2 t33) (* 3 t32) (* 4 t31) (* 5 t30) (* 6 t29) (* 7 t28) (* 8 t27) (* 9 t26) (* 10 t25) (* 12 t24) (* 13 t23) (* 14 t22) (* 15 t21) (* 17 t20) (* 18 t19) (* 19 t18) (* 25 t17) (* 26 t16) (* 27 t15) (* 28 t14) (* 20 t13) (* 21 t12) (* 22 t11) (* 23 t10) (* 4 t5) (* 8 t4) (* 11 t9) (* 11 t3) t52) (+ t42 t35 t7)) (<= 0 t1) (<= 0 t3) (<= 0 t9) (<= 0 t4) (<= 0 t2) (<= 0 t5) (<= 0 t6) (<= 0 t49) (<= 0 t7) (<= 0 t51) (<= 0 t35) (<= 0 t42) (<= 0 t10) (<= 0 t11) (<= 0 t12) (<= 0 t13) (<= 0 t14) (<= 0 t15) (<= 0 t16) (<= 0 t17) (<= 0 t18) (<= 0 t19) (<= 0 t20) (<= 0 t21) (<= 0 t22) (<= 0 t23) (<= 0 t24) (<= 0 t25) (<= 0 t26) (<= 0 t27) (<= 0 t28) (<= 0 t29) (<= 0 t30) (<= 0 t31) (<= 0 t32) (<= 0 t33) (<= 0 t34) (<= 0 t46) (<= 0 t47) (= (+ t51 t7 t6 t50) 0) (= (+ t49 t48) t2) (= (+ t47 t46 t45) 0) (= t44 0) (= t43 0) (= t41 t42) (= t40 0) (= t39 0) (= t38 t1) (= t37 0) (= t36 0) (= (+ t34 t33 t32 t31 t30 t29 t28 t27 t26 t25 t24 t23 t22 t21 t20 t19 t18 t17 t16 t15 t14 t13 t12 t11 t10 t9 t8) t35) (= 0 (+ t7 t6)) (= (+ t5 t4 t3) 0) (= t2 0) (= t1 0)))
(check-sat)
(get-model)
